sing20191230.12
TTAA 80121 48698
99008 29456 06510 00093 28250 03015 92780 22431 02013
85513 17820 07509 70157 10657 07014 50589 04162 06011
40762 15159 07006 30974 29563 33507 25101 39764 04003
20249 52757 13508 15429 65961 09520
88999
77999=
